(declare-const |c':40| Int)
(declare-const |b':48| Int)
(declare-const |a':60| Int)
(declare-const |K:67| Int)
(assert (and (or (not (and (<= (- |K:67|) 0) (<= |K:67| 0)))
                   (= (+ |b':48| -6) 0))
               (or (not (<= (+ (- |K:67|) 1) 0)) (= (+ |b':48| -6) 0))
               (or (not (<= (- |K:67|) 0)) (= (+ |a':60| (- |K:67|)) 0))
               (or (not (and (<= (- |K:67|) 0) (<= |K:67| 0)))
                     (= (+ |c':40| -6) 0))
               (or (not (<= (+ (- |K:67|) 1) 0)) (= (+ |c':40| -6) 0))
               (or (not (<= (- |K:67|) 0))
                     (<= (+ |c':40| (* -5 |K:67|) -6) 0))
               (or (not (<= (- |K:67|) 0))
                     (<= (+ |b':48| (* -5 |K:67|) -6) 0))
               (or (and (= |K:67| 0) (= (+ (- |c':40|) 6) 0)
                          (= (+ (- |b':48|) 6) 0) (= (- |a':60|) 0))
                     (and (<= (+ (- |K:67|) 1) 0) (= (+ |c':40| -6) 0)
                            (= (+ |b':48| -6) 0) (<= (+ |a':60| -6) 0)
                            (<= (+ (- |a':60|) 1) 0))) (<= (- |K:67|) 0)
               (< (- |c':40|) 0) (< (- |b':48|) 0) (<= (- |a':60|) 0)
               (<= (+ (- |a':60|) 6) 0) (= (+ |a':60| -6) 0)
               (= (+ |b':48| -6) 0) (not (= (+ |c':40| -6) 0))))
(check-sat)
